c --- [ banner ] -------------------------------------------------------------
c 
c CaDiCaL Radically Simplified CDCL SAT Solver
c Copyright (c) 2016-2021 A. Biere, M. Fleury, N. Froleyks
c 
c Version 1.5.2 a5f15211db36c3956764e18194dd5bd63bf3b5e6
c g++ (GCC) 9.3.0 -Wall -Wextra -O3 -DNDEBUG
c Fri Oct 21 01:27:37 EDT 2022 Linux gra-login3 3.10.0-1160.66.1.el7.x86_64 x86_64
c 
c --- [ limit ] --------------------------------------------------------------
c 
c setting conflict limit to 200000 conflicts (due to '200000')
c 
c --- [ parsing input ] ------------------------------------------------------
c 
c reading DIMACS file from '33.cubes1335.adj'
c opening file to read '33.cubes1335.adj'
c found 'p cnf 6160 1595476' header
c parsed 1595476 clauses in 19.57 seconds process time
c closing file '33.cubes1335.adj'
c after reading 1457566782 bytes 1390.0 MB
c 
c --- [ options ] ------------------------------------------------------------
c 
c all options are set to their default value
c 
c --- [ solving ] ------------------------------------------------------------
c 
c time measured in process time since initialization
c 
c  seconds    reductions  redundant   irredundant
c          MB     restarts       trail       variables
c            level   conflicts       glue         remaining
c 
c * 19.57 1370  0 0   0    0    0  0% 0 1595422 2372 39%
c { 20.85 1423  0 0   0    0    0  0% 0 1595422 2372 39%
c i 21.01 1430 849 0   0   11    9 31% 1 1595422 2360 38%
c i 25.68 1502 360 0  11   64   57 29% 34 1595422 2351 38%
c i 27.10 1506 301 0  14   92   78 29% 33 1595422 2346 38%
c i 27.15 1506 296 0  14   96   80 29% 34 1595422 2345 38%
c i 28.45 1513 203 0  23  156  128 29% 37 1595422 2344 38%
c i 28.85 1514 167 0  23  196  159 29% 35 1595422 2343 38%
c i 29.09 1514 141 0  23  243  190 29% 33 1595422 2342 38%
c i 29.20 1514 126 0  23  279  219 29% 32 1595422 2341 38%
c i 29.23 1514 125 0  23  283  222 29% 32 1595422 2340 38%
c - 33.50 1504 120 1  23  301  234 29% 31 612964 2340 38%
c i 33.68 1454 120 1  23  303  234 29% 31 612964 2338 38%
c i 34.12 1454 121 1  25  319  248 29% 33 612964 2337 38%
c i 34.98 1455 116 1  32  347  274 29% 33 612964 2336 38%
c i 35.03 1455 116 1  32  350  276 29% 33 612964 2335 38%
c i 35.07 1455 115 1  32  354  279 29% 33 612964 2334 38%
c i 35.13 1455 114 1  32  359  282 29% 33 612964 2333 38%
c i 35.50 1455 112 1  35  373  295 29% 33 612964 2332 38%
c i 36.28 1455 105 1  39  437  355 29% 33 612964 2331 38%
c 
c  seconds     reductions  redundant   irredundant
c          MB      restarts       trail       variables
c             level   conflicts       glue         remaining
c 
c i 36.31 1455 104 1  39  439  356 29% 33 612964 2330 38%
c i 36.35 1455 104 1  39  442  358 29% 33 612964 2329 38%
c i 37.85 1456 93 1  49  594  489 29% 32 612964 2328 38%
c i 38.02 1457 89 1  49  635  519 29% 32 612964 2327 38%
c i 38.41 1457 85 1  49  702  569 29% 31 612964 2326 38%
c i 38.43 1457 85 1  49  708  573 29% 31 612964 2325 38%
c i 38.46 1457 84 1  49  719  583 29% 31 612964 2324 38%
c i 38.52 1457 84 1  49  741  601 29% 31 612964 2323 38%
c i 38.66 1457 83 1  49  779  630 29% 31 612964 2322 38%
c i 38.78 1457 79 1  50  827  671 28% 30 612964 2321 38%
c i 38.94 1457 77 1  50  887  728 28% 29 612964 2320 38%
c i 38.97 1457 75 1  50  924  759 29% 29 612964 2319 38%
c i 38.99 1457 75 1  50  939  771 29% 29 612964 2318 38%
c i 39.04 1457 75 1  50  953  781 29% 29 612964 2317 38%
c i 39.04 1457 74 1  50  955  782 29% 29 612964 2316 38%
c } 39.41 1457 74 1  56 1000  821 29% 30 612964 2316 38%
c [ 39.41 1457  0 1  56 1000  821  0% 0 612964 2316 38%
c O 39.45 1457 51 1  56 1003  824 23% 2 612964 2316 38%
c i 39.77 1457 20 1  56 1075  883 30% 14 612964 2315 38%
c i 39.83 1457 19 1  56 1100  897 30% 14 612964 2314 38%
c 
c  seconds    reductions  redundant   irredundant
c          MB     restarts       trail       variables
c            level   conflicts       glue         remaining
c 
c i 39.83 1457 19 1  56 1105  900 30% 14 612964 2313 38%
c i 39.84 1457 19 1  56 1106  900 30% 14 612964 2312 38%
c i 39.84 1457 19 1  56 1107  900 30% 13 612964 2311 38%
c i 39.93 1457 21 1  56 1213  981 30% 16 612964 2310 38%
c i 39.97 1457 20 1  56 1256 1006 30% 15 612964 2309 37%
c i 40.07 1457 21 1  56 1361 1096 30% 16 612964 2308 37%
c i 40.08 1457 21 1  56 1363 1097 30% 16 612964 2307 37%
c - 41.21 1623 21 2  56 1374  978 30% 16 612865 2307 37%
c i 41.36 1623 22 2  56 1403  997 30% 17 612865 2306 37%
c i 41.44 1623 22 2  56 1424 1014 31% 17 612865 2305 37%
c i 41.45 1623 22 2  56 1430 1018 30% 17 612865 2304 37%
c i 41.49 1623 22 2  56 1447 1032 30% 17 612865 2303 37%
c i 41.53 1623 22 2  56 1463 1045 30% 17 612865 2302 37%
c i 41.98 1623 24 2  56 1882 1347 30% 19 612865 2301 37%
c i 42.18 1623 24 2  57 2133 1516 31% 20 612865 2300 37%
c i 43.00 1623 24 2  57 2876 2058 31% 20 612865 2299 37%
c i 43.03 1623 24 2  57 2896 2076 31% 20 612865 2298 37%
c - 43.93 1619 24 3  57 2983 1591 31% 20 612838 2298 37%
c ] 44.45 1619 24 3  57 3001 1606 54% 20 612838 2298 37%
c { 44.45 1619 74 3  57 3001 1606 76% 30 612838 2298 37%
c 
c  seconds    reductions  redundant   irredundant
c          MB     restarts       trail       variables
c            level   conflicts       glue         remaining
c 
c F 44.69 1619 74 3  59 3005 1610 76% 30 612838 2298 37%
c i 45.87 1619 60 3  60 3385 1902 68% 27 612838 2297 37%
c i 45.88 1619 60 3  60 3396 1911 68% 27 612838 2296 37%
c i 46.13 1619 58 3  60 3482 1969 66% 26 612838 2295 37%
c i 46.66 1619 52 3  60 3770 2160 63% 25 612838 2294 37%
c i 48.73 1619 49 3  96 4475 2728 58% 25 612838 2293 37%
c i 49.02 1619 49 3 103 4524 2772 58% 25 612838 2292 37%
c i 49.45 1619 50 3 112 4569 2812 58% 26 612838 2291 37%
c i 49.90 1619 50 3 123 4633 2871 58% 26 612838 2290 37%
c i 50.00 1619 50 3 123 4658 2886 57% 26 612838 2289 37%
c i 50.22 1619 49 3 123 4716 2926 57% 25 612838 2288 37%
c i 50.30 1619 48 3 123 4766 2961 57% 25 612838 2287 37%
c i 50.32 1619 48 3 123 4790 2974 57% 25 612838 2286 37%
c 3 51.67 1620 47 3 123 5002 3841 56% 25 612776 2273 37%
c 2 51.82 1620 47 3 123 5002 3951 56% 25 612776 2234 36%
c p 58.71 1620 47 3 123 5002 6051 56% 25 612776 2196 36%
c d 59.35 1620 47 3 123 5002 5632 56% 25 337133 2195 36%
c - 60.55 1456 45 4 123 5127 2192 56% 24 337133 2195 36%
c # 62.01 1456 41 4 127 6006 2847 54% 22 337133 2195 36%
c } 62.72 1456 36 4 131 7004 3464 52% 20 337133 2195 36%
c 
c  seconds    reductions  redundant   irredundant
c          MB     restarts       trail       variables
c            level   conflicts       glue         remaining
c 
c [ 62.72 1456 24 4 131 7004 3464 54% 20 337133 2195 36%
c - 63.04 1342 22 5 132 7420 2533 48% 18 337133 2195 36%
c I 64.95 1342 25 5 133 10010 4081 46% 21 337133 2195 36%
c - 65.60 1343 26 6 133 10171 3036 46% 21 337133 2195 36%
c - 68.94 1458 29 7 136 13381 3791 46% 23 337133 2195 36%
c ] 70.40 1458 30 7 136 15005 4989 45% 24 337133 2195 36%
c { 70.40 1458 36 7 136 15005 4989 52% 20 337133 2195 36%
c 2 70.47 1458 36 7 136 15005 5934 52% 20 337123 2195 36%
c p 73.99 1458 36 7 136 15005 7866 52% 20 337123 2194 36%
c B 74.18 1458 36 7 136 15011 7871 52% 20 337123 2194 36%
c - 81.05 1343 34 8 255 17047 4722 51% 20 337120 2194 36%
c s 87.51 1343 36 8 412 18788 5984 51% 21 334358 2194 36%
c v 94.76 1343 36 8 412 18788 5984 51% 21 334337 2194 36%
c t 94.99 1343 36 8 412 18788 5967 51% 21 334324 2194 36%
c e 96.35 1344 36 8 412 18788 5571 51% 21 331988 895 15%
c s 96.50 1344 36 8 412 18788 5571 51% 21 331805 895 15%
c } 102.75 1344 35 8 528 20321 6776 68% 21 331805 895 15%
c 1 102.75 1344 35 8 528 20321 6776 68% 21 331805 895 15%
c 
c --- [ writing output ] -----------------------------------------------------
c 
c writing simplified CNF to DIMACS file 'simp/33.cubes1335.adj.simp1'
c * 102.75 1344 35 8 528 20321 6776 68% 21 331805 895 15%
c opening file to write 'simp/33.cubes1335.adj.simp1'
c writing 'p cnf 6160 331805' header
c closing file 'simp/33.cubes1335.adj.simp1'
c after writing 127448199 bytes 121.5 MB
c wrote 331805 clauses in 0.95 seconds process time
c 
c --- [ writing extension ] --------------------------------------------------
c 
c writing extension stack to 'simp/33.cubes1335.adj.ext1'
c opening file to write 'simp/33.cubes1335.adj.ext1'
c closing file 'simp/33.cubes1335.adj.ext1'
c after writing 85069 bytes 0.1 MB
c wrote 3810 witnesses in 0.00 seconds process time
c 
c --- [ result ] -------------------------------------------------------------
c 
s SATISFIABLE
c 
c --- [ run-time profiling ] -------------------------------------------------
c 
c process time taken by individual solving procedures
c (percentage relative to process time for solving)
c 
c        60.64   72.90% search
c        46.63   56.06% unstable
c        22.54   27.10% simplify
c        19.57   23.52% parse
c        12.73   15.30% stable
c        10.40   12.51% probe
c         7.42    8.92% vivify
c         2.43    2.92% elim
c         1.28    1.54% lucky
c         0.29    0.34% subsume
c         0.16    0.19% ternary
c   =================================
c        83.19   80.21% solve
c 
c last line shows process time for solving
c (percentage relative to total process time)
c 
c --- [ statistics ] ---------------------------------------------------------
c 
c chronological:              4486        22.08 %  of conflicts
c conflicts:                 20321       244.29    per second
c decisions:                 59918       720.29    per second
c eliminated:                 1299        21.09 %  of all variables
c fixed:                       808        13.12 %  of all variables
c learned:                   19829        97.58 %  per conflict
c learned_lits:            3137808       100.00 %  learned literals
c minimized:                     0         0.00 %  learned literals
c shrunken:                1793325        57.15 %  learned literals
c minishrunken:             323325        10.30 %  learned literals
c propagations:            3072479         0.04 M  per second
c reduced:                    7588        37.34 %  per conflict
c rephased:                      5      4064.20    interval
c restarts:                    528        38.49    interval
c stabilizing:                   2        49.22 %  of conflicts
c substituted:                  14         0.23 %  of all variables
c subsumed:                   8100         0.21 %  of all clauses
c strengthened:               7815         0.21 %  of all clauses
c ternary:                    1769         0.56 %  of resolved
c vivified:                     30         0.00 %  of all clauses
c weakened:                   3002         2.99    average size
c 
c seconds are measured in process time for solving
c 
c --- [ resources ] ----------------------------------------------------------
c 
c total process time since initialization:       103.71    seconds
c total real time since initialization:          104.18    seconds
c maximum resident set size of process:         1866.77    MB
c 
c --- [ shutting down ] ------------------------------------------------------
c 
c exit 10
WARNING! DIMACS header mismatch: wrong number of variables.
============================[ Problem Statistics ]=============================
|                                                                             |
|  Number of variables:          3492                                         |
|  Number of clauses:          331805                                         |
|  Parse time:                   1.67 s                                       |
|  Simplification time:          0.06 s                                       |
|                                                                             |
============================[ Search Statistics ]====================================================
| Conflicts |          ORIGINAL         |          LEARNT          | Num Sols |      SUBGRAPHS      |
|           |    Vars  Clauses Literals |    Limit  Clauses Lit/Cl |          | Canonical Noncanon. |
=====================================================================================================
|       103 |    3400   331808 28349013 |     2000      103    163 |        0 |        12         3 |
|       253 |    3400   331808 28349013 |     2000      253     97 |        0 |        23         3 |
|       478 |    3400   331808 28349013 |     2000      478     88 |        0 |        36         3 |
|       937 |    3400   331930 28352181 |     2000      937     77 |        0 |       119       125 |
|      1448 |    3400   331935 28352459 |     2000     1448     79 |        0 |       127       130 |
|      2207 |    3400   331935 28352459 |     3600     1207     52 |        0 |       148       130 |
|      3385 |    3400   331974 28353234 |     3600     2385     70 |        0 |       184       169 |
|      5176 |    3400   332057 28355018 |     5003     2379     51 |        0 |       226       252 |
|      7953 |    3400   332272 28358446 |     6303     2656     39 |        0 |       276       467 |
|     12356 |    3400   332831 28369376 |     7552     3908     39 |        0 |       446      1026 |
|     18969 |    3400   333678 28385390 |     8780     6749     54 |        0 |       635      1873 |
|     28185 |    3400   334245 28394984 |    11198     6583     44 |        0 |       897      2440 |
|     41867 |    3400   334953 28412414 |    13607     8474     46 |        0 |      1186      3148 |
|     64357 |    3400   337982 28471523 |    17215     8772     29 |        0 |      1691      6177 |
|     95797 |    3400   340230 28511581 |    20817    12614     42 |        0 |      2174      8425 |
|    141327 |    3400   341971 28546445 |    25608    12935     28 |        0 |      2636     10166 |
|    208484 |    3400   343444 28572486 |    30412    25296     60 |        0 |      2989     11639 |
|    307172 |    3400   343606 28576390 |    37608    23780     45 |        0 |      3094     11801 |
|    464288 |    3400   352933 28763775 |    46010    36698     64 |        0 |      5136     21128 |
|    720010 |    3400   386972 29469635 |    58022    35432     51 |        0 |     12518     55167 |
|   1137205 |    3400   471642 31327236 |    72418    65023     48 |        0 |     28154    139837 |
|   1681033 |    3400   516682 32356913 |    89216    47449     31 |        0 |     38530    184877 |
|   2669456 |    3400   756923 38032423 |   112030    85886     54 |        0 |     77866    425118 |
|   4030721 |    3400   995914 41973693 |   138419    76540     24 |        0 |    124859    664109 |
=====================================================================================================
Number of solutions   : 0
Canonical subgraphs   : 144617         (23 /sec)
          order  3    : 1              (111111 /sec)
          order  4    : 1              (333333 /sec)
          order  5    : 1              (166667 /sec)
          order  6    : 1              (37037 /sec)
          order  7    : 1              (5882 /sec)
          order  8    : 2              (1022 /sec)
          order  9    : 9              (380 /sec)
          order 10    : 39             (131 /sec)
          order 11    : 254            (54 /sec)
          order 12    : 1316           (29 /sec)
          order 13    : 8547           (25 /sec)
          order 14    : 32539          (21 /sec)
          order 15    : 51941          (27 /sec)
          order 16    : 26783          (24 /sec)
          order 17    : 17714          (19 /sec)
          order 18    : 3488           (19 /sec)
          order 19    : 1681           (18 /sec)
          order 20    : 158            (24 /sec)
          order 21    : 141            (25 /sec)
          order 22    : 0              (-nan /sec)
Noncanonical subgraphs: 890375         (169 /sec)
          order  3    : 0              (-nan /sec)
          order  4    : 0              (-nan /sec)
          order  5    : 0              (-nan /sec)
          order  6    : 0              (-nan /sec)
          order  7    : 0              (-nan /sec)
          order  8    : 0              (-nan /sec)
          order  9    : 0              (-nan /sec)
          order 10    : 0              (-nan /sec)
          order 11    : 0              (-nan /sec)
          order 12    : 0              (-nan /sec)
          order 13    : 27309          (3451 /sec)
          order 14    : 66256          (1057 /sec)
          order 15    : 763743         (154 /sec)
          order 16    : 24581          (164 /sec)
          order 17    : 8330           (75 /sec)
          order 18    : 4              (767 /sec)
          order 19    : 3              (44118 /sec)
          order 20    : 0              (-nan /sec)
          order 21    : 0              (-nan /sec)
Canonicity checking   : 6243.41 s
Noncanonicity checking: 5283.43 s
Total canonicity time : 11526.8 s
database reductions   : 123
restarts              : 8190
conflicts             : 4774818        (324 /sec)
decisions             : 6639531        (0.00 % random) (451 /sec)
propagations          : 236855141      (16081 /sec)
conflict literals     : 426357114      (54.65 % deleted)
actual reward         : 0.244810
Memory used           : 655.00 MB
CPU time              : 14729 s

UNSATISFIABLE
